90
36
48
70
0
82
40
33
0
75
84
27
100
37
67
28
54
24
104
33
0
24
27
27
53
46
59
50
29
36
45
0
123
68
48
29
52
27
68
120
39
73
110
0
179
99
53
53
79
43
141
0
75
103
112
76
107
24
67
0
0
0
144
69
0
24
26
37
0
37
128
65
58
23
42
55
68
54
35
43
46
25
70
28
136
78
26
25
59
270
351
0
87
117
58
53
47
95
48
0
